c nombre: 48
c densidad: 0.5
p edges 45 484
e 1 3
e 1 5
e 1 7
e 1 9
e 1 19
e 1 20
e 1 21
e 1 22
e 1 23
e 1 24
e 1 27
e 1 28
e 1 32
e 1 33
e 1 35
e 1 37
e 1 39
e 1 41
e 1 43
e 1 44
e 2 3
e 2 5
e 2 7
e 2 11
e 2 12
e 2 15
e 2 16
e 2 18
e 2 20
e 2 22
e 2 23
e 2 24
e 2 28
e 2 29
e 2 32
e 2 33
e 2 35
e 2 38
e 2 39
e 2 40
e 2 41
e 2 42
e 2 43
e 2 45
e 3 5
e 3 7
e 3 9
e 3 11
e 3 17
e 3 19
e 3 20
e 3 23
e 3 25
e 3 27
e 3 29
e 3 30
e 3 31
e 3 33
e 3 35
e 3 36
e 3 41
e 3 42
e 3 43
e 3 44
e 4 7
e 4 8
e 4 9
e 4 10
e 4 11
e 4 13
e 4 15
e 4 16
e 4 18
e 4 19
e 4 20
e 4 21
e 4 22
e 4 23
e 4 24
e 4 28
e 4 30
e 4 31
e 4 33
e 4 34
e 4 36
e 4 40
e 4 41
e 5 6
e 5 9
e 5 10
e 5 13
e 5 14
e 5 18
e 5 19
e 5 20
e 5 22
e 5 25
e 5 27
e 5 28
e 5 29
e 5 31
e 5 34
e 5 35
e 5 36
e 5 37
e 5 38
e 5 43
e 6 7
e 6 10
e 6 12
e 6 14
e 6 15
e 6 19
e 6 21
e 6 23
e 6 29
e 6 30
e 6 34
e 6 35
e 6 37
e 6 38
e 6 40
e 6 41
e 6 43
e 6 44
e 7 8
e 7 9
e 7 10
e 7 11
e 7 12
e 7 13
e 7 14
e 7 15
e 7 24
e 7 25
e 7 29
e 7 32
e 7 33
e 7 34
e 7 36
e 7 41
e 7 45
e 8 9
e 8 10
e 8 13
e 8 15
e 8 17
e 8 18
e 8 19
e 8 20
e 8 21
e 8 24
e 8 25
e 8 27
e 8 31
e 8 32
e 8 38
e 8 42
e 8 43
e 9 11
e 9 12
e 9 13
e 9 15
e 9 16
e 9 17
e 9 19
e 9 22
e 9 23
e 9 24
e 9 25
e 9 30
e 9 31
e 9 32
e 9 33
e 9 35
e 9 36
e 9 37
e 9 40
e 9 41
e 9 42
e 9 44
e 10 11
e 10 12
e 10 14
e 10 19
e 10 20
e 10 21
e 10 25
e 10 26
e 10 33
e 10 34
e 10 35
e 10 37
e 10 38
e 10 41
e 11 12
e 11 15
e 11 17
e 11 18
e 11 19
e 11 20
e 11 21
e 11 23
e 11 24
e 11 25
e 11 27
e 11 30
e 11 32
e 11 33
e 11 34
e 11 39
e 11 40
e 11 42
e 11 44
e 11 45
e 12 13
e 12 15
e 12 17
e 12 18
e 12 22
e 12 23
e 12 25
e 12 27
e 12 28
e 12 30
e 12 34
e 12 35
e 12 36
e 12 40
e 12 42
e 12 43
e 13 16
e 13 17
e 13 19
e 13 22
e 13 23
e 13 27
e 13 28
e 13 33
e 13 34
e 13 39
e 13 40
e 13 43
e 14 16
e 14 18
e 14 19
e 14 22
e 14 23
e 14 25
e 14 28
e 14 31
e 14 32
e 14 34
e 14 35
e 14 37
e 14 39
e 14 40
e 14 45
e 15 16
e 15 18
e 15 24
e 15 25
e 15 26
e 15 27
e 15 28
e 15 29
e 15 33
e 15 35
e 15 36
e 15 38
e 15 39
e 15 43
e 15 44
e 16 19
e 16 21
e 16 22
e 16 24
e 16 25
e 16 28
e 16 31
e 16 34
e 16 36
e 16 37
e 16 39
e 16 43
e 17 19
e 17 20
e 17 21
e 17 23
e 17 27
e 17 29
e 17 32
e 17 33
e 17 34
e 17 36
e 17 37
e 17 38
e 17 45
e 18 19
e 18 21
e 18 25
e 18 26
e 18 27
e 18 28
e 18 29
e 18 31
e 18 35
e 18 36
e 18 37
e 18 38
e 18 40
e 18 43
e 19 21
e 19 23
e 19 24
e 19 25
e 19 27
e 19 28
e 19 30
e 19 33
e 19 35
e 19 38
e 19 39
e 19 41
e 19 43
e 19 44
e 19 45
e 20 21
e 20 23
e 20 26
e 20 30
e 20 32
e 20 33
e 20 34
e 20 35
e 20 41
e 20 43
e 20 44
e 20 45
e 21 22
e 21 30
e 21 35
e 21 36
e 21 38
e 21 40
e 21 41
e 21 44
e 21 45
e 22 24
e 22 25
e 22 26
e 22 29
e 22 31
e 22 34
e 22 36
e 22 38
e 22 42
e 22 44
e 22 45
e 23 24
e 23 26
e 23 27
e 23 32
e 23 33
e 23 34
e 23 37
e 23 42
e 24 26
e 24 27
e 24 28
e 24 29
e 24 31
e 24 32
e 24 33
e 24 34
e 24 35
e 24 36
e 24 42
e 24 44
e 25 27
e 25 30
e 25 31
e 25 34
e 25 37
e 25 38
e 25 39
e 25 40
e 25 42
e 26 28
e 26 29
e 26 30
e 26 31
e 26 33
e 26 34
e 26 36
e 26 37
e 26 41
e 26 43
e 26 44
e 27 28
e 27 30
e 27 36
e 27 37
e 27 40
e 27 42
e 27 45
e 28 30
e 28 31
e 28 33
e 28 35
e 28 36
e 28 38
e 28 40
e 28 42
e 28 44
e 29 32
e 29 33
e 29 34
e 29 38
e 29 40
e 29 42
e 29 43
e 29 44
e 29 45
e 30 31
e 30 32
e 30 34
e 30 36
e 30 37
e 30 40
e 30 41
e 30 43
e 30 45
e 31 32
e 31 33
e 31 38
e 31 41
e 31 43
e 31 44
e 31 45
e 32 36
e 32 43
e 32 44
e 32 45
e 33 34
e 33 37
e 33 39
e 33 40
e 33 41
e 33 45
e 34 37
e 34 38
e 34 39
e 34 40
e 35 38
e 35 40
e 35 41
e 35 42
e 35 43
e 35 44
e 36 39
e 36 40
e 36 45
e 37 38
e 37 39
e 37 40
e 37 41
e 37 42
e 37 44
e 37 45
e 38 40
e 38 41
e 38 42
e 38 43
e 38 45
e 39 41
e 39 44
e 39 45
e 40 41
e 40 42
e 41 43
e 41 44
e 43 44
e 44 45
